words_hard_train/6358.qaiger
aag 81 15 0 1 66
2
4
8
12
16
24
26
30
34
38
42
52
60
138
146
162
6 3 5
10 6 9
14 11 12
18 14 16
20 15 17
22 19 21
28 25 27
32 28 31
36 32 35
40 36 39
44 41 42
46 40 43
48 45 47
50 22 48
54 20 53
56 21 52
58 55 57
62 47 60
64 46 61
66 63 65
68 59 66
70 51 69
72 24 26
74 73 29
76 74 2
78 4 30
80 76 79
82 7 33
84 2 4
86 29 30
88 85 87
90 82 88
92 81 91
94 33 34
96 95 37
98 7 8
100 99 11
102 97 101
104 93 103
106 96 100
108 105 107
110 37 38
112 111 41
114 10 13
116 115 15
118 112 117
120 108 119
122 113 116
124 121 123
126 23 49
128 124 127
130 70 129
132 58 67
134 131 133
136 135 65
140 57 139
142 56 138
144 141 143
148 144 146
150 136 149
152 134 64
154 148 152
156 151 155
158 145 153
160 158 147
162 156 161
i0 2 y1[0]
i1 2 y1[1]
i2 2 y1[2]
i3 2 y1[3]
i4 2 y1[4]
i5 1 x1[0]
i6 1 x1[1]
i7 1 x1[2]
i8 1 x1[3]
i9 1 x1[4]
i10 1 x1[5]
i11 2 y1[5]
i12 1 x1[6]
i13 2 y1[6]
i14 1 x1[7]
o0 bv[0]
c
simplified
  <=
    1 x1
    subtract
      subtract
        << 4
          -243
        2 y1
      2 y1
