words_hard_train/6358.qaiger.qdimacs
p cnf 81 199
a 73 12 13 15 17 19 21 30 0
e 1 2 3 4 5 6 7 8 9 10 11 14 16 18 20 22 23 24 25 26 27 28 29 31 32 33 34 35 36 37 38 39 40 41 42 43 44 45 46 47 48 49 50 51 52 53 54 55 56 57 58 59 60 61 62 63 64 65 66 67 68 69 70 71 72 74 75 76 77 78 79 80 81 0
1 2 3 0
-1 -3 0
-2 -3 0
-3 4 5 0
3 -5 0
-4 -5 0
5 -6 7 0
-5 -7 0
6 -7 0
-7 -8 9 0
7 -9 0
8 -9 0
7 8 10 0
-7 -10 0
-8 -10 0
9 10 11 0
-9 -11 0
-10 -11 0
12 13 14 0
-12 -14 0
-13 -14 0
-14 15 16 0
14 -16 0
-15 -16 0
-16 17 18 0
16 -18 0
-17 -18 0
-18 19 20 0
18 -20 0
-19 -20 0
20 -21 22 0
-20 -22 0
21 -22 0
-20 21 23 0
20 -23 0
-21 -23 0
22 23 24 0
-22 -24 0
-23 -24 0
-11 -24 25 0
11 -25 0
24 -25 0
-10 26 27 0
10 -27 0
-26 -27 0
10 -26 28 0
-10 -28 0
26 -28 0
27 28 29 0
-27 -29 0
-28 -29 0
23 -30 31 0
-23 -31 0
30 -31 0
-23 30 32 0
23 -32 0
-30 -32 0
31 32 33 0
-31 -33 0
-32 -33 0
29 -33 34 0
-29 -34 0
33 -34 0
25 34 35 0
-25 -35 0
-34 -35 0
-12 -13 36 0
12 -36 0
13 -36 0
36 14 37 0
-36 -37 0
-14 -37 0
-37 -1 38 0
37 -38 0
1 -38 0
-2 -15 39 0
2 -39 0
15 -39 0
-38 39 40 0
38 -40 0
-39 -40 0
3 16 41 0
-3 -41 0
-16 -41 0
-1 -2 42 0
1 -42 0
2 -42 0
14 -15 43 0
-14 -43 0
15 -43 0
42 43 44 0
-42 -44 0
-43 -44 0
-41 -44 45 0
41 -45 0
44 -45 0
40 45 46 0
-40 -46 0
-45 -46 0
16 -17 47 0
-16 -47 0
17 -47 0
47 18 48 0
-47 -48 0
-18 -48 0
3 -4 49 0
-3 -49 0
4 -49 0
49 5 50 0
-49 -50 0
-5 -50 0
48 50 51 0
-48 -51 0
-50 -51 0
46 51 52 0
-46 -52 0
-51 -52 0
-48 -50 53 0
48 -53 0
50 -53 0
52 53 54 0
-52 -54 0
-53 -54 0
18 -19 55 0
-18 -55 0
19 -55 0
55 20 56 0
-55 -56 0
-20 -56 0
-5 6 57 0
5 -57 0
-6 -57 0
57 7 58 0
-57 -58 0
-7 -58 0
-56 58 59 0
56 -59 0
-58 -59 0
-54 59 60 0
54 -60 0
-59 -60 0
56 -58 61 0
-56 -61 0
58 -61 0
60 61 62 0
-60 -62 0
-61 -62 0
11 24 63 0
-11 -63 0
-24 -63 0
-62 63 64 0
62 -64 0
-63 -64 0
-35 64 65 0
35 -65 0
-64 -65 0
-29 33 66 0
29 -66 0
-33 -66 0
65 66 67 0
-65 -67 0
-66 -67 0
67 32 68 0
-67 -68 0
-32 -68 0
28 69 70 0
-28 -70 0
-69 -70 0
-28 -69 71 0
28 -71 0
69 -71 0
70 71 72 0
-70 -72 0
-71 -72 0
-72 -73 74 0
72 -74 0
73 -74 0
-68 74 75 0
68 -75 0
-74 -75 0
-67 -32 76 0
67 -76 0
32 -76 0
-74 -76 77 0
74 -77 0
76 -77 0
75 77 78 0
-75 -78 0
-77 -78 0
72 76 79 0
-72 -79 0
-76 -79 0
-79 73 80 0
79 -80 0
-73 -80 0
-78 80 81 0
78 -81 0
-80 -81 0
81 0
